<number of tasks>
89

<cycle time>
79

<task times>
1 28
2 17
3 7
4 10
5 12
6 16
7 13
8 8
9 13
10 24
11 16
12 24
13 12
14 20
15 22
16 22
17 22
18 47
19 6
20 12
21 6
22 22
23 7
24 14
25 68
26 15
27 8
28 74
29 32
30 11
31 18
32 15
33 42
34 27
35 38
36 38
37 26
38 35
39 31
40 8
41 14
42 8
43 8
44 8
45 17
46 7
47 19
48 12
49 24
50 26
51 22
52 14
53 27
54 60
55 4
56 2
57 1
58 9
59 5
60 6
61 7
62 12
63 2
64 11
65 14
66 6
67 21
68 14
69 1
70 6
71 21
72 11
73 14
74 28
75 12
76 11
77 30
78 22
79 14
80 31
81 18
82 16
83 7
84 38
85 8
86 31
87 29
88 12
89 18

<precedence relations>
1,2
2,3
3,4
4,5
4,6
4,7
4,8
4,9
5,10
6,11
7,12
8,18
9,18
10,14
11,12
12,13
13,14
14,15
14,16
15,17
16,54
17,18
18,19
18,20
19,22
20,21
20,28
21,54
22,23
23,24
24,25
25,26
25,27
25,29
26,37
27,33
28,29
29,31
30,54
31,32
32,33
33,34
34,35
35,36
35,37
36,38
37,38
38,39
39,40
39,41
39,42
39,43
40,44
41,53
42,53
43,45
44,52
45,46
46,47
47,48
47,49
49,50
50,51
51,52
52,53
53,68
53,69
53,70
53,71
54,55
55,56
56,57
57,58
57,59
57,60
57,61
57,62
57,63
57,64
57,65
57,66
58,67
59,67
60,67
61,67
62,67
63,67
64,67
65,67
66,67
67,73
68,72
69,72
70,72
71,73
72,78
72,80
73,74
74,75
74,76
75,77
76,81
77,78
78,79
79,81
80,81
81,82
81,84
81,85
82,83
83,86
84,86
85,86
86,87
87,88
87,89

<setup times forward>
1,30:1
2,30:1
3,30:1
4,5:3
4,7:3
4,8:1
4,9:2
4,30:1
5,6:3
5,8:2
5,9:5
5,10:5
5,30:2
6,5:3
6,7:3
6,8:1
6,9:2
6,10:2
6,11:3
6,30:1
7,6:3
7,8:2
7,9:5
7,10:5
7,30:2
8,5:2
8,6:1
8,7:2
8,9:3
8,10:3
8,11:2
8,12:2
8,13:2
8,14:3
8,15:3
8,16:2
9,5:5
9,6:2
9,7:5
9,8:3
9,11:5
9,12:5
9,13:5
9,16:1
9,17:3
9,18:3
9,30:3
10,6:2
10,7:5
10,8:3
10,11:5
10,12:5
10,13:5
10,30:3
11,8:2
11,9:5
11,10:5
11,30:2
12,8:2
12,9:5
12,10:5
12,30:2
13,8:2
13,9:5
13,10:5
13,14:5
13,30:2
14,8:3
14,16:1
14,30:3
15,8:3
15,16:1
15,17:3
15,30:3
16,8:2
16,9:1
16,15:1
16,17:2
16,18:2
16,19:2
16,20:2
16,21:2
16,22:2
16,23:2
16,24:2
16,25:1
16,26:1
16,27:1
16,28:1
16,29:2
16,30:2
16,31:2
16,32:2
16,33:3
16,34:3
16,35:1
16,36:3
16,37:1
16,38:3
16,40:4
16,41:3
16,42:3
16,44:4
16,46:2
16,47:3
16,48:2
16,49:3
16,50:3
16,51:3
16,52:4
16,53:4
16,54:2
16,69:2
16,70:2
16,71:4
16,72:2
16,80:2
17,9:3
17,16:2
18,16:2
19,16:2
19,28:1
19,58:5
19,60:6
19,61:6
19,62:6
19,63:6
19,64:6
19,65:1
19,66:6
19,67:5
20,16:2
20,25:3
20,26:3
20,27:3
20,28:1
21,16:2
21,25:3
21,26:3
21,27:3
21,28:1
21,29:4
21,31:4
21,32:4
21,33:1
21,34:1
21,35:3
21,36:5
21,37:3
21,38:5
21,39:2
21,40:2
21,41:1
21,42:1
21,43:2
21,44:2
21,45:2
21,47:1
21,48:4
21,49:1
21,50:5
21,51:5
21,52:2
21,53:2
21,68:2
21,71:2
22,16:2
22,28:1
22,58:5
22,60:6
22,61:6
22,62:6
22,63:6
22,64:6
22,65:1
22,66:6
22,67:5
23,16:2
23,28:1
23,58:5
23,60:6
23,61:6
23,62:6
23,63:6
23,64:6
23,65:1
23,66:6
23,67:5
24,16:2
24,25:3
24,28:1
24,58:5
24,60:6
24,61:6
24,62:6
24,63:6
24,64:6
24,65:1
24,66:6
24,67:5
25,16:1
25,20:3
25,21:3
25,28:2
25,29:1
25,30:3
25,54:3
25,55:3
25,56:3
25,57:3
25,58:2
25,59:3
25,60:3
25,61:3
25,62:3
25,63:3
25,64:3
25,65:4
25,66:3
25,67:2
26,16:1
26,20:3
26,21:3
26,28:2
26,29:1
26,30:3
26,31:1
26,32:1
26,33:4
26,34:4
26,36:2
26,54:3
26,55:3
26,56:3
26,57:3
26,58:2
26,59:3
26,60:3
26,61:3
26,62:3
26,63:3
26,64:3
26,65:4
26,66:3
26,67:2
27,16:1
27,20:3
27,21:3
27,28:2
27,29:1
27,30:3
27,31:1
27,32:1
27,33:4
27,54:3
27,55:3
27,56:3
27,57:3
27,58:2
27,59:3
27,60:3
27,61:3
27,62:3
27,63:3
27,64:3
27,65:4
27,66:3
27,67:2
28,16:1
28,19:1
28,21:1
28,22:1
28,23:1
28,24:1
28,25:2
28,26:2
28,27:2
28,29:3
28,30:1
28,54:1
28,55:1
28,56:1
28,57:1
28,58:4
28,59:1
28,60:5
28,61:5
28,62:5
28,63:5
28,64:5
28,65:2
28,66:5
28,67:4
29,16:2
29,21:4
29,26:1
29,27:1
29,30:4
29,54:4
29,55:4
29,56:4
29,57:4
29,58:1
29,59:4
29,60:2
29,61:2
29,62:2
29,63:2
29,64:2
29,65:5
29,66:2
29,67:1
30,1:1
30,2:1
30,3:1
30,4:1
30,5:2
30,6:1
30,7:2
30,9:3
30,10:3
30,11:2
30,12:2
30,13:2
30,14:3
30,15:3
30,16:2
30,25:3
30,26:3
30,27:3
30,28:1
30,29:4
30,31:4
30,32:4
30,33:1
30,34:1
30,35:3
30,36:5
30,37:3
30,38:5
30,39:2
30,40:2
30,41:1
30,42:1
30,43:2
30,44:2
30,45:2
30,47:1
30,48:4
30,49:1
30,50:5
30,51:5
30,52:2
30,53:2
30,68:2
30,71:2
31,16:2
31,21:4
31,26:1
31,27:1
31,30:4
31,54:4
31,55:4
31,56:4
31,57:4
31,58:1
31,59:4
31,60:2
31,61:2
31,62:2
31,63:2
31,64:2
31,65:5
31,66:2
31,67:1
32,16:2
32,21:4
32,26:1
32,27:1
32,30:4
32,33:5
32,54:4
32,55:4
32,56:4
32,57:4
32,58:1
32,59:4
32,60:2
32,61:2
32,62:2
32,63:2
32,64:2
32,65:5
32,66:2
32,67:1
33,16:3
33,21:1
33,26:4
33,30:1
33,54:1
33,55:1
33,56:1
33,57:1
33,58:6
33,59:1
33,60:7
33,61:7
33,62:7
33,63:7
33,64:7
33,66:7
33,67:6
34,16:3
34,21:1
34,26:4
34,30:1
34,35:4
34,54:1
34,55:1
34,56:1
34,57:1
34,58:6
34,59:1
34,60:7
34,61:7
34,62:7
34,63:7
34,64:7
34,66:7
34,67:6
35,16:1
35,21:3
35,30:3
35,36:2
35,54:3
35,55:3
35,56:3
35,57:3
35,58:2
35,59:3
35,60:3
35,61:3
35,62:3
35,63:3
35,64:3
35,65:4
35,66:3
35,67:2
36,16:3
36,21:5
36,26:2
36,30:5
36,37:2
36,54:5
36,55:5
36,56:5
36,57:5
36,59:5
36,60:1
36,61:1
36,62:1
36,63:1
36,64:1
36,65:6
36,66:1
37,16:1
37,21:3
37,30:3
37,36:2
37,38:2
37,54:3
37,55:3
37,56:3
37,57:3
37,58:2
37,59:3
37,60:3
37,61:3
37,62:3
37,63:3
37,64:3
37,65:4
37,66:3
37,67:2
38,16:3
38,21:5
38,30:5
38,39:3
38,54:5
38,55:5
38,56:5
38,57:5
38,59:5
38,60:1
38,61:1
38,62:1
38,63:1
38,64:1
38,65:6
38,66:1
39,21:2
39,30:2
39,40:4
39,41:3
39,42:3
39,54:2
39,55:2
39,56:2
39,57:2
39,58:3
39,59:2
39,60:4
39,61:4
39,62:4
39,63:4
39,64:4
39,65:3
39,66:4
39,67:3
40,16:4
40,21:2
40,30:2
40,41:1
40,42:1
40,43:4
40,45:4
40,46:2
40,47:1
40,48:6
40,49:1
40,50:7
40,51:7
40,54:2
40,55:2
40,56:2
40,57:2
40,58:7
40,59:2
40,60:8
40,61:8
40,62:8
40,63:8
40,64:8
40,65:1
40,66:8
40,67:7
41,16:3
41,21:1
41,30:1
41,40:1
41,43:3
41,44:1
41,45:3
41,46:1
41,48:5
41,50:6
41,51:6
41,52:1
41,53:1
41,54:1
41,55:1
41,56:1
41,57:1
41,58:6
41,59:1
41,60:7
41,61:7
41,62:7
41,63:7
41,64:7
41,66:7
41,67:6
42,16:3
42,21:1
42,30:1
42,40:1
42,43:3
42,44:1
42,45:3
42,46:1
42,48:5
42,50:6
42,51:6
42,52:1
42,53:1
42,54:1
42,55:1
42,56:1
42,57:1
42,58:6
42,59:1
42,60:7
42,61:7
42,62:7
42,63:7
42,64:7
42,66:7
42,67:6
43,21:2
43,30:2
43,40:4
43,41:3
43,42:3
43,44:4
43,54:2
43,55:2
43,56:2
43,57:2
43,58:3
43,59:2
43,60:4
43,61:4
43,62:4
43,63:4
43,64:4
43,65:3
43,66:4
43,67:3
44,16:4
44,21:2
44,30:2
44,41:1
44,42:1
44,43:4
44,45:4
44,46:2
44,47:1
44,48:6
44,49:1
44,50:7
44,51:7
44,54:2
44,55:2
44,56:2
44,57:2
44,58:7
44,59:2
44,60:8
44,61:8
44,62:8
44,63:8
44,64:8
44,65:1
44,66:8
44,67:7
45,21:2
45,30:2
45,40:4
45,41:3
45,42:3
45,44:4
45,46:2
45,54:2
45,55:2
45,56:2
45,57:2
45,58:3
45,59:2
45,60:4
45,61:4
45,62:4
45,63:4
45,64:4
45,65:3
45,66:4
45,67:3
46,16:2
46,40:2
46,41:1
46,42:1
46,44:2
46,47:1
46,58:5
46,60:6
46,61:6
46,62:6
46,63:6
46,64:6
46,65:1
46,66:6
46,67:5
47,16:3
47,21:1
47,30:1
47,40:1
47,44:1
47,48:5
47,54:1
47,55:1
47,56:1
47,57:1
47,58:6
47,59:1
47,60:7
47,61:7
47,62:7
47,63:7
47,64:7
47,66:7
47,67:6
48,16:2
48,21:4
48,30:4
48,40:6
48,41:5
48,42:5
48,44:6
48,49:5
48,50:1
48,51:1
48,52:6
48,53:6
48,54:4
48,55:4
48,56:4
48,57:4
48,58:1
48,59:4
48,60:2
48,61:2
48,62:2
48,63:2
48,64:2
48,65:5
48,66:2
48,67:1
48,68:2
48,69:4
48,70:4
48,71:6
48,72:4
48,73:2
48,74:2
48,75:2
48,76:2
48,77:4
48,78:5
48,79:5
48,80:4
48,81:5
48,82:5
48,83:5
48,84:5
48,85:5
48,86:5
49,16:3
49,21:1
49,30:1
49,40:1
49,44:1
49,48:5
49,50:6
49,54:1
49,55:1
49,56:1
49,57:1
49,58:6
49,59:1
49,60:7
49,61:7
49,62:7
49,63:7
49,64:7
49,66:7
49,67:6
50,16:3
50,21:5
50,30:5
50,40:7
50,41:6
50,42:6
50,44:7
50,48:1
50,54:5
50,55:5
50,56:5
50,57:5
50,59:5
50,60:1
50,61:1
50,62:1
50,63:1
50,64:1
50,65:6
50,66:1
51,16:3
51,21:5
51,30:5
51,40:7
51,41:6
51,42:6
51,44:7
51,48:1
51,52:7
51,54:5
51,55:5
51,56:5
51,57:5
51,59:5
51,60:1
51,61:1
51,62:1
51,63:1
51,64:1
51,65:6
51,66:1
52,16:4
52,21:2
52,30:2
52,41:1
52,42:1
52,48:6
52,54:2
52,55:2
52,56:2
52,57:2
52,58:7
52,59:2
52,60:8
52,61:8
52,62:8
52,63:8
52,64:8
52,65:1
52,66:8
52,67:7
53,16:4
53,21:2
53,30:2
53,48:6
53,54:2
53,55:2
53,56:2
53,57:2
53,58:7
53,59:2
53,60:8
53,61:8
53,62:8
53,63:8
53,64:8
53,65:1
53,66:8
53,67:7
53,68:4
53,69:2
53,70:2
54,25:3
54,26:3
54,27:3
54,28:1
54,29:4
54,31:4
54,32:4
54,33:1
54,34:1
54,35:3
54,36:5
54,37:3
54,38:5
54,39:2
54,40:2
54,41:1
54,42:1
54,43:2
54,44:2
54,45:2
54,47:1
54,48:4
54,49:1
54,50:5
54,51:5
54,52:2
54,53:2
54,68:2
54,71:2
55,25:3
55,26:3
55,27:3
55,28:1
55,29:4
55,31:4
55,32:4
55,33:1
55,34:1
55,35:3
55,36:5
55,37:3
55,38:5
55,39:2
55,40:2
55,41:1
55,42:1
55,43:2
55,44:2
55,45:2
55,47:1
55,48:4
55,49:1
55,50:5
55,51:5
55,52:2
55,53:2
55,68:2
55,71:2
56,25:3
56,26:3
56,27:3
56,28:1
56,29:4
56,31:4
56,32:4
56,33:1
56,34:1
56,35:3
56,36:5
56,37:3
56,38:5
56,39:2
56,40:2
56,41:1
56,42:1
56,43:2
56,44:2
56,45:2
56,47:1
56,48:4
56,49:1
56,50:5
56,51:5
56,52:2
56,53:2
56,68:2
56,71:2
57,25:3
57,26:3
57,27:3
57,28:1
57,29:4
57,31:4
57,32:4
57,33:1
57,34:1
57,35:3
57,36:5
57,37:3
57,38:5
57,39:2
57,40:2
57,41:1
57,42:1
57,43:2
57,44:2
57,45:2
57,47:1
57,48:4
57,49:1
57,50:5
57,51:5
57,52:2
57,53:2
57,58:5
57,60:6
57,61:6
57,62:6
57,63:6
57,64:6
57,65:1
57,66:6
57,68:2
57,71:2
58,19:5
58,22:5
58,23:5
58,24:5
58,25:2
58,26:2
58,27:2
58,28:4
58,29:1
58,31:1
58,32:1
58,33:6
58,34:6
58,35:2
58,37:2
58,39:3
58,40:7
58,41:6
58,42:6
58,43:3
58,44:7
58,45:3
58,46:5
58,47:6
58,48:1
58,49:6
58,52:7
58,53:7
58,59:5
58,60:1
58,61:1
58,62:1
58,63:1
58,64:1
58,65:6
58,66:1
58,68:3
58,69:5
58,70:5
58,71:7
58,72:5
58,80:5
59,25:3
59,26:3
59,27:3
59,28:1
59,29:4
59,31:4
59,32:4
59,33:1
59,34:1
59,35:3
59,36:5
59,37:3
59,38:5
59,39:2
59,40:2
59,41:1
59,42:1
59,43:2
59,44:2
59,45:2
59,47:1
59,48:4
59,49:1
59,50:5
59,51:5
59,52:2
59,53:2
59,58:5
59,60:6
59,61:6
59,62:6
59,63:6
59,64:6
59,65:1
59,66:6
59,67:5
59,68:2
59,71:2
60,19:6
60,22:6
60,23:6
60,24:6
60,25:3
60,26:3
60,27:3
60,28:5
60,29:2
60,31:2
60,32:2
60,33:7
60,34:7
60,35:3
60,36:1
60,37:3
60,38:1
60,39:4
60,40:8
60,41:7
60,42:7
60,43:4
60,44:8
60,45:4
60,46:6
60,47:7
60,48:2
60,49:7
60,50:1
60,51:1
60,52:8
60,53:8
60,58:1
60,59:6
60,65:7
60,67:1
60,68:4
60,69:6
60,70:6
60,71:8
60,72:6
60,80:6
61,19:6
61,22:6
61,23:6
61,24:6
61,25:3
61,26:3
61,27:3
61,28:5
61,29:2
61,31:2
61,32:2
61,33:7
61,34:7
61,35:3
61,36:1
61,37:3
61,38:1
61,39:4
61,40:8
61,41:7
61,42:7
61,43:4
61,44:8
61,45:4
61,46:6
61,47:7
61,48:2
61,49:7
61,50:1
61,51:1
61,52:8
61,53:8
61,58:1
61,59:6
61,65:7
61,67:1
61,68:4
61,69:6
61,70:6
61,71:8
61,72:6
61,80:6
62,19:6
62,22:6
62,23:6
62,24:6
62,25:3
62,26:3
62,27:3
62,28:5
62,29:2
62,31:2
62,32:2
62,33:7
62,34:7
62,35:3
62,36:1
62,37:3
62,38:1
62,39:4
62,40:8
62,41:7
62,42:7
62,43:4
62,44:8
62,45:4
62,46:6
62,47:7
62,48:2
62,49:7
62,50:1
62,51:1
62,52:8
62,53:8
62,58:1
62,59:6
62,65:7
62,67:1
62,68:4
62,69:6
62,70:6
62,71:8
62,72:6
62,80:6
63,19:6
63,22:6
63,23:6
63,24:6
63,25:3
63,26:3
63,27:3
63,28:5
63,29:2
63,31:2
63,32:2
63,33:7
63,34:7
63,35:3
63,36:1
63,37:3
63,38:1
63,39:4
63,40:8
63,41:7
63,42:7
63,43:4
63,44:8
63,45:4
63,46:6
63,47:7
63,48:2
63,49:7
63,50:1
63,51:1
63,52:8
63,53:8
63,58:1
63,59:6
63,65:7
63,67:1
63,68:4
63,69:6
63,70:6
63,71:8
63,72:6
63,80:6
64,19:6
64,22:6
64,23:6
64,24:6
64,25:3
64,26:3
64,27:3
64,28:5
64,29:2
64,31:2
64,32:2
64,33:7
64,34:7
64,35:3
64,36:1
64,37:3
64,38:1
64,39:4
64,40:8
64,41:7
64,42:7
64,43:4
64,44:8
64,45:4
64,46:6
64,47:7
64,48:2
64,49:7
64,50:1
64,51:1
64,52:8
64,53:8
64,58:1
64,59:6
64,65:7
64,67:1
64,68:4
64,69:6
64,70:6
64,71:8
64,72:6
64,80:6
65,19:1
65,22:1
65,23:1
65,24:1
65,25:4
65,26:4
65,27:4
65,28:2
65,29:5
65,31:5
65,32:5
65,35:4
65,36:6
65,37:4
65,38:6
65,39:3
65,40:1
65,43:3
65,44:1
65,45:3
65,46:1
65,48:5
65,50:6
65,51:6
65,52:1
65,53:1
65,58:6
65,59:1
65,60:7
65,61:7
65,62:7
65,63:7
65,64:7
65,66:7
65,67:6
65,68:3
65,69:1
65,70:1
65,71:1
65,72:1
65,80:1
66,19:6
66,22:6
66,23:6
66,24:6
66,25:3
66,26:3
66,27:3
66,28:5
66,29:2
66,31:2
66,32:2
66,33:7
66,34:7
66,35:3
66,36:1
66,37:3
66,38:1
66,39:4
66,40:8
66,41:7
66,42:7
66,43:4
66,44:8
66,45:4
66,46:6
66,47:7
66,48:2
66,49:7
66,50:1
66,51:1
66,52:8
66,53:8
66,58:1
66,59:6
66,65:7
66,67:1
66,68:4
66,69:6
66,70:6
66,71:8
66,72:6
66,80:6
67,19:5
67,22:5
67,23:5
67,24:5
67,25:2
67,26:2
67,27:2
67,28:4
67,29:1
67,31:1
67,32:1
67,33:6
67,34:6
67,35:2
67,37:2
67,39:3
67,40:7
67,41:6
67,42:6
67,43:3
67,44:7
67,45:3
67,46:5
67,47:6
67,48:1
67,49:6
67,52:7
67,53:7
67,68:3
67,69:5
67,70:5
67,71:7
67,72:5
67,73:3
67,80:5
68,21:2
68,30:2
68,48:2
68,54:2
68,55:2
68,56:2
68,57:2
68,58:3
68,59:2
68,60:4
68,61:4
68,62:4
68,63:4
68,64:4
68,65:3
68,66:4
68,67:3
68,69:2
68,70:2
68,71:4
68,72:2
68,77:2
69,16:2
69,48:4
69,58:5
69,60:6
69,61:6
69,62:6
69,63:6
69,64:6
69,65:1
69,66:6
69,67:5
69,68:2
69,71:2
69,73:2
69,74:2
69,75:2
69,76:2
70,16:2
70,48:4
70,58:5
70,60:6
70,61:6
70,62:6
70,63:6
70,64:6
70,65:1
70,66:6
70,67:5
70,68:2
70,71:2
70,73:2
70,74:2
70,75:2
70,76:2
71,16:4
71,21:2
71,30:2
71,48:6
71,54:2
71,55:2
71,56:2
71,57:2
71,58:7
71,59:2
71,60:8
71,61:8
71,62:8
71,63:8
71,64:8
71,65:1
71,66:8
71,67:7
71,68:4
71,69:2
71,70:2
71,72:2
71,73:4
71,80:2
72,16:2
72,48:4
72,58:5
72,60:6
72,61:6
72,62:6
72,63:6
72,64:6
72,65:1
72,66:6
72,67:5
72,71:2
72,73:2
72,74:2
72,75:2
72,76:2
72,78:1
73,48:2
73,69:2
73,70:2
73,72:2
73,80:2
74,48:2
74,69:2
74,70:2
74,72:2
74,80:2
75,48:2
75,69:2
75,70:2
75,72:2
75,77:2
75,80:2
76,48:2
76,69:2
76,70:2
76,72:2
76,77:2
76,78:3
76,79:3
76,80:2
76,81:3
77,48:4
77,68:2
77,76:2
77,78:1
78,48:5
78,76:3
78,80:1
79,48:5
79,76:3
79,80:1
80,16:2
80,48:4
80,58:5
80,60:6
80,61:6
80,62:6
80,63:6
80,64:6
80,65:1
80,66:6
80,67:5
80,71:2
80,73:2
80,74:2
80,75:2
80,76:2
80,78:1
80,79:1
80,81:1
81,48:5
82,48:5
83,48:5
84,48:5
85,48:5
86,48:5
86,87:5

<setup times backward>
5,1:3
5,2:3
5,3:3
5,4:3
5,6:3
5,8:2
5,9:5
5,30:2
6,9:2
6,10:2
7,1:3
7,2:3
7,3:3
7,4:3
7,6:3
7,8:2
7,9:5
7,10:5
7,30:2
8,1:1
8,2:1
8,3:1
8,4:1
8,6:1
8,9:3
8,10:3
8,14:3
8,15:3
8,16:2
11,1:3
11,2:3
11,3:3
11,4:3
11,6:3
11,8:2
11,9:5
11,10:5
11,30:2
12,1:3
12,2:3
12,3:3
12,4:3
12,6:3
12,8:2
12,9:5
12,10:5
12,30:2
13,1:3
13,2:3
13,3:3
13,4:3
13,6:3
13,8:2
13,9:5
13,10:5
13,30:2
16,9:1
16,10:1
16,14:1
16,15:1
16,25:1
16,26:1
16,27:1
16,29:2
16,31:2
16,32:2
16,35:1
16,36:3
16,37:1
16,38:3
16,48:2
16,50:3
16,51:3
17,1:1
17,2:1
17,3:1
17,4:1
17,6:1
17,9:3
17,10:3
17,14:3
17,15:3
17,16:2
18,1:1
18,2:1
18,3:1
18,4:1
18,6:1
18,9:3
18,10:3
18,14:3
18,15:3
18,16:2
19,1:1
19,2:1
19,3:1
19,4:1
19,6:1
19,9:3
19,10:3
19,14:3
19,15:3
19,16:2
19,28:1
19,58:5
19,60:6
19,61:6
19,62:6
19,63:6
19,64:6
19,66:6
19,67:5
20,1:1
20,2:1
20,3:1
20,4:1
20,6:1
20,9:3
20,10:3
20,14:3
20,15:3
20,16:2
20,25:3
20,26:3
20,27:3
21,1:1
21,2:1
21,3:1
21,4:1
21,6:1
21,9:3
21,10:3
21,14:3
21,15:3
21,16:2
21,25:3
21,26:3
21,27:3
21,28:1
21,29:4
21,31:4
21,32:4
21,35:3
21,36:5
21,37:3
21,38:5
21,39:2
21,43:2
21,45:2
21,48:4
21,50:5
21,51:5
21,68:2
22,1:1
22,2:1
22,3:1
22,4:1
22,6:1
22,9:3
22,10:3
22,14:3
22,15:3
22,16:2
22,28:1
22,58:5
22,60:6
22,61:6
22,62:6
22,63:6
22,64:6
22,66:6
22,67:5
23,1:1
23,2:1
23,3:1
23,4:1
23,6:1
23,9:3
23,10:3
23,14:3
23,15:3
23,16:2
23,28:1
23,58:5
23,60:6
23,61:6
23,62:6
23,63:6
23,64:6
23,66:6
23,67:5
24,1:1
24,2:1
24,3:1
24,4:1
24,6:1
24,9:3
24,10:3
24,14:3
24,15:3
24,16:2
24,28:1
24,58:5
24,60:6
24,61:6
24,62:6
24,63:6
24,64:6
24,66:6
24,67:5
25,58:2
25,60:3
25,61:3
25,62:3
25,63:3
25,64:3
25,66:3
25,67:2
26,29:1
26,31:1
26,32:1
26,36:2
26,58:2
26,60:3
26,61:3
26,62:3
26,63:3
26,64:3
26,66:3
26,67:2
27,29:1
27,31:1
27,32:1
27,58:2
27,60:3
27,61:3
27,62:3
27,63:3
27,64:3
27,66:3
27,67:2
28,9:2
28,10:2
28,14:2
28,15:2
28,16:1
28,25:2
28,26:2
28,27:2
28,58:4
28,60:5
28,61:5
28,62:5
28,63:5
28,64:5
28,66:5
28,67:4
29,58:1
29,60:2
29,61:2
29,62:2
29,63:2
29,64:2
29,66:2
29,67:1
30,1:1
30,2:1
30,3:1
30,4:1
30,6:1
30,9:3
30,10:3
30,14:3
30,15:3
30,16:2
30,25:3
30,26:3
30,27:3
30,28:1
30,29:4
30,31:4
30,32:4
30,35:3
30,36:5
30,37:3
30,38:5
30,39:2
30,43:2
30,45:2
30,48:4
30,50:5
30,51:5
30,68:2
31,58:1
31,60:2
31,61:2
31,62:2
31,63:2
31,64:2
31,66:2
31,67:1
32,58:1
32,60:2
32,61:2
32,62:2
32,63:2
32,64:2
32,66:2
32,67:1
33,1:2
33,2:2
33,3:2
33,4:2
33,6:2
33,8:1
33,9:4
33,10:4
33,14:4
33,15:4
33,16:3
33,17:1
33,18:1
33,19:1
33,20:1
33,21:1
33,22:1
33,23:1
33,24:1
33,25:4
33,26:4
33,27:4
33,28:2
33,29:5
33,30:1
33,31:5
33,32:5
33,54:1
33,55:1
33,56:1
33,57:1
33,58:6
33,59:1
33,60:7
33,61:7
33,62:7
33,63:7
33,64:7
33,66:7
33,67:6
34,1:2
34,2:2
34,3:2
34,4:2
34,6:2
34,8:1
34,9:4
34,10:4
34,14:4
34,15:4
34,16:3
34,17:1
34,18:1
34,19:1
34,20:1
34,21:1
34,22:1
34,23:1
34,24:1
34,25:4
34,26:4
34,27:4
34,28:2
34,29:5
34,30:1
34,31:5
34,32:5
34,54:1
34,55:1
34,56:1
34,57:1
34,58:6
34,59:1
34,60:7
34,61:7
34,62:7
34,63:7
34,64:7
34,66:7
34,67:6
35,29:1
35,31:1
35,32:1
35,58:2
35,60:3
35,61:3
35,62:3
35,63:3
35,64:3
35,66:3
35,67:2
36,60:1
36,61:1
36,62:1
36,63:1
36,64:1
36,66:1
37,29:1
37,31:1
37,32:1
37,36:2
37,58:2
37,60:3
37,61:3
37,62:3
37,63:3
37,64:3
37,66:3
37,67:2
38,60:1
38,61:1
38,62:1
38,63:1
38,64:1
38,66:1
39,9:1
39,10:1
39,14:1
39,15:1
39,25:1
39,26:1
39,27:1
39,29:2
39,31:2
39,32:2
39,35:1
39,36:3
39,37:1
39,38:3
39,58:3
39,60:4
39,61:4
39,62:4
39,63:4
39,64:4
39,66:4
39,67:3
40,1:3
40,2:3
40,3:3
40,4:3
40,6:3
40,8:2
40,9:5
40,10:5
40,14:5
40,15:5
40,16:4
40,17:2
40,18:2
40,19:2
40,20:2
40,21:2
40,22:2
40,23:2
40,24:2
40,25:5
40,26:5
40,27:5
40,28:3
40,29:6
40,30:2
40,31:6
40,32:6
40,33:1
40,34:1
40,35:5
40,36:7
40,37:5
40,38:7
40,39:4
40,41:1
40,42:1
40,43:4
40,45:4
40,46:2
40,47:1
40,48:6
40,49:1
40,50:7
40,51:7
40,54:2
40,55:2
40,56:2
40,57:2
40,58:7
40,59:2
40,60:8
40,61:8
40,62:8
40,63:8
40,64:8
40,65:1
40,66:8
40,67:7
41,1:2
41,2:2
41,3:2
41,4:2
41,6:2
41,8:1
41,9:4
41,10:4
41,14:4
41,15:4
41,16:3
41,17:1
41,18:1
41,19:1
41,20:1
41,21:1
41,22:1
41,23:1
41,24:1
41,25:4
41,26:4
41,27:4
41,28:2
41,29:5
41,30:1
41,31:5
41,32:5
41,35:4
41,36:6
41,37:4
41,38:6
41,39:3
41,43:3
41,45:3
41,46:1
41,48:5
41,50:6
41,51:6
41,54:1
41,55:1
41,56:1
41,57:1
41,58:6
41,59:1
41,60:7
41,61:7
41,62:7
41,63:7
41,64:7
41,66:7
41,67:6
42,1:2
42,2:2
42,3:2
42,4:2
42,6:2
42,8:1
42,9:4
42,10:4
42,14:4
42,15:4
42,16:3
42,17:1
42,18:1
42,19:1
42,20:1
42,21:1
42,22:1
42,23:1
42,24:1
42,25:4
42,26:4
42,27:4
42,28:2
42,29:5
42,30:1
42,31:5
42,32:5
42,35:4
42,36:6
42,37:4
42,38:6
42,39:3
42,43:3
42,45:3
42,46:1
42,48:5
42,50:6
42,51:6
42,54:1
42,55:1
42,56:1
42,57:1
42,58:6
42,59:1
42,60:7
42,61:7
42,62:7
42,63:7
42,64:7
42,66:7
42,67:6
43,9:1
43,10:1
43,14:1
43,15:1
43,25:1
43,26:1
43,27:1
43,29:2
43,31:2
43,32:2
43,35:1
43,36:3
43,37:1
43,38:3
43,58:3
43,60:4
43,61:4
43,62:4
43,63:4
43,64:4
43,66:4
43,67:3
44,1:3
44,2:3
44,3:3
44,4:3
44,6:3
44,8:2
44,9:5
44,10:5
44,14:5
44,15:5
44,16:4
44,17:2
44,18:2
44,19:2
44,20:2
44,21:2
44,22:2
44,23:2
44,24:2
44,25:5
44,26:5
44,27:5
44,28:3
44,29:6
44,30:2
44,31:6
44,32:6
44,33:1
44,34:1
44,35:5
44,36:7
44,37:5
44,38:7
44,39:4
44,41:1
44,42:1
44,43:4
44,45:4
44,46:2
44,47:1
44,48:6
44,49:1
44,50:7
44,51:7
44,54:2
44,55:2
44,56:2
44,57:2
44,58:7
44,59:2
44,60:8
44,61:8
44,62:8
44,63:8
44,64:8
44,65:1
44,66:8
44,67:7
45,9:1
45,10:1
45,14:1
45,15:1
45,25:1
45,26:1
45,27:1
45,29:2
45,31:2
45,32:2
45,35:1
45,36:3
45,37:1
45,38:3
45,58:3
45,60:4
45,61:4
45,62:4
45,63:4
45,64:4
45,66:4
45,67:3
46,1:1
46,2:1
46,3:1
46,4:1
46,6:1
46,9:3
46,10:3
46,14:3
46,15:3
46,16:2
46,25:3
46,26:3
46,27:3
46,28:1
46,29:4
46,31:4
46,32:4
46,35:3
46,36:5
46,37:3
46,38:5
46,39:2
46,43:2
46,45:2
46,58:5
46,60:6
46,61:6
46,62:6
46,63:6
46,64:6
46,66:6
46,67:5
47,1:2
47,2:2
47,3:2
47,4:2
47,6:2
47,8:1
47,9:4
47,10:4
47,14:4
47,15:4
47,16:3
47,17:1
47,18:1
47,19:1
47,20:1
47,21:1
47,22:1
47,23:1
47,24:1
47,25:4
47,26:4
47,27:4
47,28:2
47,29:5
47,30:1
47,31:5
47,32:5
47,35:4
47,36:6
47,37:4
47,38:6
47,39:3
47,43:3
47,45:3
47,46:1
47,54:1
47,55:1
47,56:1
47,57:1
47,58:6
47,59:1
47,60:7
47,61:7
47,62:7
47,63:7
47,64:7
47,66:7
47,67:6
48,36:1
48,38:1
48,50:1
48,51:1
48,58:1
48,60:2
48,61:2
48,62:2
48,63:2
48,64:2
48,66:2
48,67:1
49,1:2
49,2:2
49,3:2
49,4:2
49,6:2
49,8:1
49,9:4
49,10:4
49,14:4
49,15:4
49,16:3
49,17:1
49,18:1
49,19:1
49,20:1
49,21:1
49,22:1
49,23:1
49,24:1
49,25:4
49,26:4
49,27:4
49,28:2
49,29:5
49,30:1
49,31:5
49,32:5
49,35:4
49,36:6
49,37:4
49,38:6
49,39:3
49,43:3
49,45:3
49,46:1
49,48:5
49,54:1
49,55:1
49,56:1
49,57:1
49,58:6
49,59:1
49,60:7
49,61:7
49,62:7
49,63:7
49,64:7
49,66:7
49,67:6
50,60:1
50,61:1
50,62:1
50,63:1
50,64:1
50,66:1
51,60:1
51,61:1
51,62:1
51,63:1
51,64:1
51,66:1
52,1:3
52,2:3
52,3:3
52,4:3
52,6:3
52,8:2
52,9:5
52,10:5
52,14:5
52,15:5
52,16:4
52,17:2
52,18:2
52,19:2
52,20:2
52,21:2
52,22:2
52,23:2
52,24:2
52,25:5
52,26:5
52,27:5
52,28:3
52,29:6
52,30:2
52,31:6
52,32:6
52,33:1
52,34:1
52,35:5
52,36:7
52,37:5
52,38:7
52,39:4
52,41:1
52,42:1
52,43:4
52,45:4
52,46:2
52,47:1
52,48:6
52,49:1
52,50:7
52,51:7
52,54:2
52,55:2
52,56:2
52,57:2
52,58:7
52,59:2
52,60:8
52,61:8
52,62:8
52,63:8
52,64:8
52,65:1
52,66:8
52,67:7
53,1:3
53,2:3
53,3:3
53,4:3
53,6:3
53,8:2
53,9:5
53,10:5
53,14:5
53,15:5
53,16:4
53,17:2
53,18:2
53,19:2
53,20:2
53,21:2
53,22:2
53,23:2
53,24:2
53,25:5
53,26:5
53,27:5
53,28:3
53,29:6
53,30:2
53,31:6
53,32:6
53,33:1
53,34:1
53,35:5
53,36:7
53,37:5
53,38:7
53,39:4
53,41:1
53,42:1
53,43:4
53,45:4
53,46:2
53,47:1
53,48:6
53,49:1
53,50:7
53,51:7
53,54:2
53,55:2
53,56:2
53,57:2
53,58:7
53,59:2
53,60:8
53,61:8
53,62:8
53,63:8
53,64:8
53,65:1
53,66:8
53,67:7
54,1:1
54,2:1
54,3:1
54,4:1
54,6:1
54,9:3
54,10:3
54,14:3
54,15:3
54,16:2
54,25:3
54,26:3
54,27:3
54,28:1
54,29:4
54,31:4
54,32:4
54,35:3
54,36:5
54,37:3
54,38:5
54,39:2
54,43:2
54,45:2
54,48:4
54,50:5
54,51:5
54,68:2
55,1:1
55,2:1
55,3:1
55,4:1
55,6:1
55,9:3
55,10:3
55,14:3
55,15:3
55,16:2
55,25:3
55,26:3
55,27:3
55,28:1
55,29:4
55,31:4
55,32:4
55,35:3
55,36:5
55,37:3
55,38:5
55,39:2
55,43:2
55,45:2
55,48:4
55,50:5
55,51:5
55,68:2
56,1:1
56,2:1
56,3:1
56,4:1
56,6:1
56,9:3
56,10:3
56,14:3
56,15:3
56,16:2
56,25:3
56,26:3
56,27:3
56,28:1
56,29:4
56,31:4
56,32:4
56,35:3
56,36:5
56,37:3
56,38:5
56,39:2
56,43:2
56,45:2
56,48:4
56,50:5
56,51:5
56,68:2
57,1:1
57,2:1
57,3:1
57,4:1
57,6:1
57,9:3
57,10:3
57,14:3
57,15:3
57,16:2
57,25:3
57,26:3
57,27:3
57,28:1
57,29:4
57,31:4
57,32:4
57,35:3
57,36:5
57,37:3
57,38:5
57,39:2
57,43:2
57,45:2
57,48:4
57,50:5
57,51:5
57,68:2
58,60:1
58,61:1
58,62:1
58,63:1
58,64:1
58,66:1
59,1:1
59,2:1
59,3:1
59,4:1
59,6:1
59,9:3
59,10:3
59,14:3
59,15:3
59,16:2
59,25:3
59,26:3
59,27:3
59,28:1
59,29:4
59,31:4
59,32:4
59,35:3
59,36:5
59,37:3
59,38:5
59,39:2
59,43:2
59,45:2
59,48:4
59,50:5
59,51:5
59,58:5
59,60:6
59,61:6
59,62:6
59,63:6
59,64:6
59,66:6
59,68:2
65,1:2
65,2:2
65,3:2
65,4:2
65,6:2
65,8:1
65,9:4
65,10:4
65,14:4
65,15:4
65,16:3
65,17:1
65,18:1
65,19:1
65,20:1
65,21:1
65,22:1
65,23:1
65,24:1
65,25:4
65,26:4
65,27:4
65,28:2
65,29:5
65,30:1
65,31:5
65,32:5
65,35:4
65,36:6
65,37:4
65,38:6
65,39:3
65,43:3
65,45:3
65,46:1
65,48:5
65,50:6
65,51:6
65,54:1
65,55:1
65,56:1
65,57:1
65,58:6
65,59:1
65,60:7
65,61:7
65,62:7
65,63:7
65,64:7
65,66:7
65,68:3
65,69:1
65,70:1
65,72:1
65,80:1
67,60:1
67,61:1
67,62:1
67,63:1
67,64:1
67,66:1
68,9:1
68,10:1
68,14:1
68,15:1
68,25:1
68,26:1
68,27:1
68,29:2
68,31:2
68,32:2
68,35:1
68,36:3
68,37:1
68,38:3
68,48:2
68,50:3
68,51:3
68,58:3
68,60:4
68,61:4
68,62:4
68,63:4
68,64:4
68,66:4
68,67:3
69,1:1
69,2:1
69,3:1
69,4:1
69,6:1
69,9:3
69,10:3
69,14:3
69,15:3
69,16:2
69,25:3
69,26:3
69,27:3
69,28:1
69,29:4
69,31:4
69,32:4
69,35:3
69,36:5
69,37:3
69,38:5
69,39:2
69,43:2
69,45:2
69,48:4
69,50:5
69,51:5
69,58:5
69,60:6
69,61:6
69,62:6
69,63:6
69,64:6
69,66:6
69,67:5
69,68:2
69,73:2
69,74:2
69,75:2
69,76:2
70,1:1
70,2:1
70,3:1
70,4:1
70,6:1
70,9:3
70,10:3
70,14:3
70,15:3
70,16:2
70,25:3
70,26:3
70,27:3
70,28:1
70,29:4
70,31:4
70,32:4
70,35:3
70,36:5
70,37:3
70,38:5
70,39:2
70,43:2
70,45:2
70,48:4
70,50:5
70,51:5
70,58:5
70,60:6
70,61:6
70,62:6
70,63:6
70,64:6
70,66:6
70,67:5
70,68:2
70,73:2
70,74:2
70,75:2
70,76:2
71,1:3
71,2:3
71,3:3
71,4:3
71,6:3
71,8:2
71,9:5
71,10:5
71,14:5
71,15:5
71,16:4
71,17:2
71,18:2
71,19:2
71,20:2
71,21:2
71,22:2
71,23:2
71,24:2
71,25:5
71,26:5
71,27:5
71,28:3
71,29:6
71,30:2
71,31:6
71,32:6
71,33:1
71,34:1
71,35:5
71,36:7
71,37:5
71,38:7
71,39:4
71,41:1
71,42:1
71,43:4
71,45:4
71,46:2
71,47:1
71,48:6
71,49:1
71,50:7
71,51:7
71,54:2
71,55:2
71,56:2
71,57:2
71,58:7
71,59:2
71,60:8
71,61:8
71,62:8
71,63:8
71,64:8
71,65:1
71,66:8
71,67:7
71,68:4
71,69:2
71,70:2
71,72:2
71,80:2
72,1:1
72,2:1
72,3:1
72,4:1
72,6:1
72,9:3
72,10:3
72,14:3
72,15:3
72,16:2
72,25:3
72,26:3
72,27:3
72,28:1
72,29:4
72,31:4
72,32:4
72,35:3
72,36:5
72,37:3
72,38:5
72,39:2
72,43:2
72,45:2
72,48:4
72,50:5
72,51:5
72,58:5
72,60:6
72,61:6
72,62:6
72,63:6
72,64:6
72,66:6
72,67:5
72,68:2
72,73:2
72,74:2
72,75:2
72,76:2
73,9:1
73,10:1
73,14:1
73,15:1
73,25:1
73,26:1
73,27:1
73,29:2
73,31:2
73,32:2
73,35:1
73,36:3
73,37:1
73,38:3
73,48:2
73,50:3
73,51:3
73,58:3
73,60:4
73,61:4
73,62:4
73,63:4
73,64:4
73,66:4
73,67:3
74,9:1
74,10:1
74,14:1
74,15:1
74,25:1
74,26:1
74,27:1
74,29:2
74,31:2
74,32:2
74,35:1
74,36:3
74,37:1
74,38:3
74,48:2
74,50:3
74,51:3
74,58:3
74,60:4
74,61:4
74,62:4
74,63:4
74,64:4
74,66:4
74,67:3
75,9:1
75,10:1
75,14:1
75,15:1
75,25:1
75,26:1
75,27:1
75,29:2
75,31:2
75,32:2
75,35:1
75,36:3
75,37:1
75,38:3
75,48:2
75,50:3
75,51:3
75,58:3
75,60:4
75,61:4
75,62:4
75,63:4
75,64:4
75,66:4
75,67:3
76,9:1
76,10:1
76,14:1
76,15:1
76,25:1
76,26:1
76,27:1
76,29:2
76,31:2
76,32:2
76,35:1
76,36:3
76,37:1
76,38:3
76,48:2
76,50:3
76,51:3
76,58:3
76,60:4
76,61:4
76,62:4
76,63:4
76,64:4
76,66:4
76,67:3
77,1:1
77,2:1
77,3:1
77,4:1
77,6:1
77,9:3
77,10:3
77,14:3
77,15:3
77,16:2
77,25:3
77,26:3
77,27:3
77,28:1
77,29:4
77,31:4
77,32:4
77,35:3
77,36:5
77,37:3
77,38:5
77,39:2
77,43:2
77,45:2
77,48:4
77,50:5
77,51:5
77,58:5
77,60:6
77,61:6
77,62:6
77,63:6
77,64:6
77,66:6
77,67:5
77,68:2
77,73:2
77,74:2
77,75:2
77,76:2
78,1:2
78,2:2
78,3:2
78,4:2
78,6:2
78,8:1
78,9:4
78,10:4
78,14:4
78,15:4
78,16:3
78,17:1
78,18:1
78,19:1
78,20:1
78,21:1
78,22:1
78,23:1
78,24:1
78,25:4
78,26:4
78,27:4
78,28:2
78,29:5
78,30:1
78,31:5
78,32:5
78,35:4
78,36:6
78,37:4
78,38:6
78,39:3
78,43:3
78,45:3
78,46:1
78,48:5
78,50:6
78,51:6
78,54:1
78,55:1
78,56:1
78,57:1
78,58:6
78,59:1
78,60:7
78,61:7
78,62:7
78,63:7
78,64:7
78,66:7
78,67:6
78,68:3
78,69:1
78,70:1
78,72:1
78,73:3
78,74:3
78,75:3
78,76:3
78,77:1
78,80:1
79,1:2
79,2:2
79,3:2
79,4:2
79,6:2
79,8:1
79,9:4
79,10:4
79,14:4
79,15:4
79,16:3
79,17:1
79,18:1
79,19:1
79,20:1
79,21:1
79,22:1
79,23:1
79,24:1
79,25:4
79,26:4
79,27:4
79,28:2
79,29:5
79,30:1
79,31:5
79,32:5
79,35:4
79,36:6
79,37:4
79,38:6
79,39:3
79,43:3
79,45:3
79,46:1
79,48:5
79,50:6
79,51:6
79,54:1
79,55:1
79,56:1
79,57:1
79,58:6
79,59:1
79,60:7
79,61:7
79,62:7
79,63:7
79,64:7
79,66:7
79,67:6
79,68:3
79,69:1
79,70:1
79,72:1
79,73:3
79,74:3
79,75:3
79,76:3
79,77:1
79,80:1
80,1:1
80,2:1
80,3:1
80,4:1
80,6:1
80,9:3
80,10:3
80,14:3
80,15:3
80,16:2
80,25:3
80,26:3
80,27:3
80,28:1
80,29:4
80,31:4
80,32:4
80,35:3
80,36:5
80,37:3
80,38:5
80,39:2
80,43:2
80,45:2
80,48:4
80,50:5
80,51:5
80,58:5
80,60:6
80,61:6
80,62:6
80,63:6
80,64:6
80,66:6
80,67:5
80,68:2
80,73:2
80,74:2
80,75:2
80,76:2
81,1:2
81,2:2
81,3:2
81,4:2
81,6:2
81,8:1
81,9:4
81,10:4
81,14:4
81,15:4
81,16:3
81,17:1
81,18:1
81,19:1
81,20:1
81,21:1
81,22:1
81,23:1
81,24:1
81,25:4
81,26:4
81,27:4
81,28:2
81,29:5
81,30:1
81,31:5
81,32:5
81,35:4
81,36:6
81,37:4
81,38:6
81,39:3
81,43:3
81,45:3
81,46:1
81,48:5
81,50:6
81,51:6
81,54:1
81,55:1
81,56:1
81,57:1
81,58:6
81,59:1
81,60:7
81,61:7
81,62:7
81,63:7
81,64:7
81,66:7
81,67:6
81,68:3
81,69:1
81,70:1
81,72:1
81,73:3
81,74:3
81,75:3
81,76:3
81,77:1
81,80:1
82,1:2
82,2:2
82,3:2
82,4:2
82,6:2
82,8:1
82,9:4
82,10:4
82,14:4
82,15:4
82,16:3
82,17:1
82,18:1
82,19:1
82,20:1
82,21:1
82,22:1
82,23:1
82,24:1
82,25:4
82,26:4
82,27:4
82,28:2
82,29:5
82,30:1
82,31:5
82,32:5
82,35:4
82,36:6
82,37:4
82,38:6
82,39:3
82,43:3
82,45:3
82,46:1
82,48:5
82,50:6
82,51:6
82,54:1
82,55:1
82,56:1
82,57:1
82,58:6
82,59:1
82,60:7
82,61:7
82,62:7
82,63:7
82,64:7
82,66:7
82,67:6
82,68:3
82,69:1
82,70:1
82,72:1
82,73:3
82,74:3
82,75:3
82,76:3
82,77:1
82,80:1
83,1:2
83,2:2
83,3:2
83,4:2
83,6:2
83,8:1
83,9:4
83,10:4
83,14:4
83,15:4
83,16:3
83,17:1
83,18:1
83,19:1
83,20:1
83,21:1
83,22:1
83,23:1
83,24:1
83,25:4
83,26:4
83,27:4
83,28:2
83,29:5
83,30:1
83,31:5
83,32:5
83,35:4
83,36:6
83,37:4
83,38:6
83,39:3
83,43:3
83,45:3
83,46:1
83,48:5
83,50:6
83,51:6
83,54:1
83,55:1
83,56:1
83,57:1
83,58:6
83,59:1
83,60:7
83,61:7
83,62:7
83,63:7
83,64:7
83,66:7
83,67:6
83,68:3
83,69:1
83,70:1
83,72:1
83,73:3
83,74:3
83,75:3
83,76:3
83,77:1
83,80:1
84,1:2
84,2:2
84,3:2
84,4:2
84,6:2
84,8:1
84,9:4
84,10:4
84,14:4
84,15:4
84,16:3
84,17:1
84,18:1
84,19:1
84,20:1
84,21:1
84,22:1
84,23:1
84,24:1
84,25:4
84,26:4
84,27:4
84,28:2
84,29:5
84,30:1
84,31:5
84,32:5
84,35:4
84,36:6
84,37:4
84,38:6
84,39:3
84,43:3
84,45:3
84,46:1
84,48:5
84,50:6
84,51:6
84,54:1
84,55:1
84,56:1
84,57:1
84,58:6
84,59:1
84,60:7
84,61:7
84,62:7
84,63:7
84,64:7
84,66:7
84,67:6
84,68:3
84,69:1
84,70:1
84,72:1
84,73:3
84,74:3
84,75:3
84,76:3
84,77:1
84,80:1
85,1:2
85,2:2
85,3:2
85,4:2
85,6:2
85,8:1
85,9:4
85,10:4
85,14:4
85,15:4
85,16:3
85,17:1
85,18:1
85,19:1
85,20:1
85,21:1
85,22:1
85,23:1
85,24:1
85,25:4
85,26:4
85,27:4
85,28:2
85,29:5
85,30:1
85,31:5
85,32:5
85,35:4
85,36:6
85,37:4
85,38:6
85,39:3
85,43:3
85,45:3
85,46:1
85,48:5
85,50:6
85,51:6
85,54:1
85,55:1
85,56:1
85,57:1
85,58:6
85,59:1
85,60:7
85,61:7
85,62:7
85,63:7
85,64:7
85,66:7
85,67:6
85,68:3
85,69:1
85,70:1
85,72:1
85,73:3
85,74:3
85,75:3
85,76:3
85,77:1
85,80:1
86,1:2
86,2:2
86,3:2
86,4:2
86,6:2
86,8:1
86,9:4
86,10:4
86,14:4
86,15:4
86,16:3
86,17:1
86,18:1
86,19:1
86,20:1
86,21:1
86,22:1
86,23:1
86,24:1
86,25:4
86,26:4
86,27:4
86,28:2
86,29:5
86,30:1
86,31:5
86,32:5
86,35:4
86,36:6
86,37:4
86,38:6
86,39:3
86,43:3
86,45:3
86,46:1
86,48:5
86,50:6
86,51:6
86,54:1
86,55:1
86,56:1
86,57:1
86,58:6
86,59:1
86,60:7
86,61:7
86,62:7
86,63:7
86,64:7
86,66:7
86,67:6
86,68:3
86,69:1
86,70:1
86,72:1
86,73:3
86,74:3
86,75:3
86,76:3
86,77:1
86,80:1
87,36:1
87,38:1
87,50:1
87,51:1
87,58:1
87,60:2
87,61:2
87,62:2
87,63:2
87,64:2
87,66:2
87,67:1
88,36:1
88,38:1
88,50:1
88,51:1
88,58:1
88,60:2
88,61:2
88,62:2
88,63:2
88,64:2
88,66:2
88,67:1
89,36:1
89,38:1
89,50:1
89,51:1
89,58:1
89,60:2
89,61:2
89,62:2
89,63:2
89,64:2
89,66:2
89,67:1

<end>

<optimal SALBP-1 value>
22


<rand seed>
467321153

<Lower Bounds>
Lm1=21
Lms1=21
Lm2=5
Lm3=11
Lm4=21
Best=21

<Optimal Stations (Iterations: 10)>
26
